
Gurobi 7.0.2 (linux64, Matlab) logging started Sun Sep  2 08:55:56 2018


Gurobi 7.0.2 (linux64) logging started Sun Sep  2 08:55:56 2018

Optimize a model with 268474 rows, 32144 columns and 659980 nonzeros
Coefficient statistics:
  Matrix range     [1e+00, 1e+02]
  Objective range  [2e-05, 3e+00]
  Bounds range     [1e-03, 1e+00]
  RHS range        [1e+04, 1e+04]
Iteration    Objective       Primal Inf.    Dual Inf.      Time
       0   -4.3106947e+03   0.000000e+00   0.000000e+00      0s

Solved in 0 iterations and 0.07 seconds
Optimal objective -4.310694704e+03
